25 50
1 2 5
1 6 1
2 3 4
2 7 3
3 4 5
3 8 5
4 5 3
4 9 4
5 10 2
6 7 2
6 11 3
7 8 3
7 12 5
8 9 5
8 13 5
9 10 2
9 14 3
10 15 3
11 12 1
11 16 1
12 13 4
12 17 5
13 14 2
13 18 3
14 15 1
14 19 3
15 20 1
16 17 2
16 21 3
17 18 4
17 22 5
18 19 3
18 23 3
19 20 3
19 24 3
20 25 2
21 22 2
22 23 1
23 24 1
24 25 4
1 21 1
2 22 2
3 23 4
4 24 4
5 25 3
1 5 2
6 10 1
11 15 2
16 20 4
21 25 1
